(declare-fun b13 () (_ FloatingPoint 11 53))
(declare-fun b54 () (_ FloatingPoint 11 53))
(declare-fun b22 () (_ FloatingPoint 11 53))
(declare-fun b57 () (_ FloatingPoint 11 53))
(declare-fun b11 () (_ FloatingPoint 11 53))
(declare-fun b10 () (_ FloatingPoint 11 53))
(declare-fun b19 () (_ FloatingPoint 11 53))
(assert (let ((.def_43 (fp.leq b57 b19)))
(let ((.def_41 (fp.leq b19 b54)))
(let ((.def_39 (fp.leq b57 b13)))
(let ((.def_37 (fp.leq b13 b54)))
(let ((.def_35 (fp.leq b57 b11)))
(let ((.def_33 (fp.leq b11 b54)))
(let ((.def_31 (fp.leq b57 b10)))
(let ((.def_28 (fp.leq b10 b54)))
(let ((.def_23 (fp.neg b11)))
(let ((.def_24 (fp.add RNE b10 .def_23)))
(let ((.def_25 (fp.lt .def_24 b19)))
(let ((.def_20 (fp.mul RNE b11 b10)))
(let ((.def_21 (fp.lt .def_20 b13)))
(let ((.def_15 (fp.mul RNE b10 b22)))
(let ((.def_17 (fp.add RNE b13 b19)))
(let ((.def_18 (fp.lt .def_17 .def_15)))
(let ((.def_11 (fp.add RNE b11 b10)))
(let ((.def_13 (fp.lt .def_11 b13)))
(let ((.def_19 (and .def_13 .def_18)))
(let ((.def_22 (and .def_19 .def_21)))
(let ((.def_26 (and .def_22 .def_25)))
(let ((.def_29 (and .def_26 .def_28)))
(let ((.def_32 (and .def_29 .def_31)))
(let ((.def_34 (and .def_32 .def_33)))
(let ((.def_36 (and .def_34 .def_35)))
(let ((.def_38 (and .def_36 .def_37)))
(let ((.def_40 (and .def_38 .def_39)))
(let ((.def_42 (and .def_40 .def_41)))
(let ((.def_44 (and .def_42 .def_43)))
.def_44))))))))))))))))))))))))))))))
(check-sat)
